
  32    4
  10   10   10   10

   0   0   0   0   0   1 2 
   6   1   0   1   1   1 3 
   2   3   1   0   6   1 4 
   5   0   5   2   7   1 5 
   7   3   6   0   3   1 6 
  10   3   0   7   3   1 7 
  10   8   0   4   4   1 8 
   6   3   5   0   3   1 9 
   8   2   3   3   0   2 12 10 
   2   3   6   3   0   1 11 
   7   4   3   5   0   1 13 
   8   6   5   0   4   1 13 
   9   0   5   5   3   2 16 14 
   4   4   3   0   2   1 15 
   8   6   0   8   5   1 17 
   7   5   3   0   5   1 17 
   1   6   5   0   6   2 19 18 
   7   3   4   0   5   2 22 20 
   4   2   0   8   5   2 22 20 
   5   6   0   2   3   1 21 
   5   8   4   5   0   1 23 
   5   3   4   2   0   1 23 
   7   0   2   4   3   2 25 24 
   2   0   5   4   4   1 26 
  10   0   4   3   2   1 26 
   6   1   4   1   0   1 27 
   1   2   2   4   0   1 28 
   9   6   0   6   6   2 31 29 
   1   0   5   3   2   1 30 
   9   5   7   4   0   1 32
   4   3   1   0   6   1 32
   0   0   0   0   0   0 
